files/example2.cnf
c generated from code
p cnf 63 3
-2  0
-3  0
-1  0
